proyfinal/src/viki/013/experimentInOfficeAgust.take6.output/c2c0805b-d5a0-49f3-ad7b-19eaeb528640.als.dat
{'cnf.clauses': '118081',
 'cnf.totvars': '69608',
 'conflict literals': '94',
 'conflicts': '30',
 'decisions': '12457',
 'memused.mb': '16.14',
 'outcome': 'UNSAT',
 'propagations': '44444',
 'restarts': '1',
 'solver.msecs': 30,
 'task.msecs': 77}
