proyfinal/src/viki/013/experimentInOfficeAgust.take6.output/c2c0805b-d5a0-49f3-ad7b-19eaeb528640.als.out
Reading from standard input... Use '--help' for help.
============================[ Problem Statistics ]=============================
|                                                                             |
|  Number of variables:         69608                                         |
|  Number of clauses:          118081                                         |
|  Parse time:                   0.02 s                                       |
|                                                                             |
============================[ Search Statistics ]==============================
| Conflicts |          ORIGINAL         |          LEARNT          | Progress |
|           |    Vars  Clauses Literals |    Limit  Clauses Lit/Cl |          |
===============================================================================
===============================================================================
restarts              : 1
conflicts             : 30             (990 /sec)
decisions             : 12457          (0.00 % random) (411122 /sec)
propagations          : 44444          (1466799 /sec)
conflict literals     : 94             (0.00 % deleted)
Memory used           : 16.14 MB
CPU time              : 0.0303 s

UNSATISFIABLE
